M+/Instances/S1-10-M+/S1-5-10-3-s-M+.txt
     100      10    0.05
       2       1       3       3       3       1       3       3       3       3      12      12      14      15       4       8       4       4      13      13       1
       1       2       3       1       3       3       2       2       2       3      13      11       5      16      16      13      14       0      16      16       1
       1       1       3       2       1       3       2       3       2       2      13       6      10      11       2       8      13      14      11       0       1
       1       1       1       1       1       2       1       1       2       1      14       0       3       0       0      11      14       5       6       8       1
       1       2       2       3       2       3       1       3       1       3       8      14       9      14       9       9       5      14       0       6       1
       1       3       3       3       1       3       3       2       1       1       2       5       7       8      12      11      14      15       6      11       1
       2       2       3       3       2       3       3       1       1       1       0       8       9      12       6      13      11       3      12       0       2
       2       2       3       1       3       2       1       2       1       1       9       6       3       9      14      10      11      16      10       8       1
       2       3       2       3       1       2       2       1       3       1       0      13       3      15      10      12       2      10      12       7       2
       3       1       3       3       1       3       3       2       2       2      14       7       6      16       3       1       7       0      10       2       1
       2       1       3       3       2       1       2       1       2       2       2       0       6       2       3       5      10       1       3       6       1
       2       1       3       2       3       2       2       1       1       1       1      16      12      13       5       5       1       6       6       1       2
       1       1       2       3       3       2       1       3       3       1       1       2      13       6      16      13      12      10      10       8       2
       3       2       2       1       1       1       3       3       3       3      15      10       1      13       4      16       0      12      12      10       2
       3       2       1       2       2       3       3       2       3       1      13       1       0      11      10      16      16      13       6       7       2
       3       3       2       1       1       2       3       1       3       3      13       0      14       2       5       0      16      15       0       1       1
       3       3       2       2       3       1       2       1       1       1       1       5       3       5      10       4       7      16      13       5       2
       1       3       3       2       2       1       1       1       3       1       2      12       4       8      15       0      13       8      13       8       1
       1       1       3       3       3       1       3       1       1       2       1      15      12       4      12       1       8       6       4       3       2
       2       1       1       3       2       2       3       1       1       2      16       1       3       4      15      13      12       3       8       2       2
       1       2       3       1       2       2       3       3       3       1      14       6      12       1      10       3       2      10       1      15       1
       2       3       2       2       1       1       1       1       3       2       2       4       1      16       7       0       9      15      16      15       2
       1       2       1       2       2       2       1       1       2       1      11       4       1       4       0       5       5      14       3       1       2
       3       1       1       1       2       3       3       2       3       2       9      12       9      14       5      11      14       4       7      14       1
       1       2       1       2       3       3       2       1       1       2       1       9       7       0       2       9       5      10       7       5       1
       3       2       3       1       3       1       1       2       1       1       0      13       4      13       5      15      14       1       4       8       1
       2       2       3       2       2       2       2       1       3       1       8       3       3       9       8       6      13       0       7      16       2
       1       2       1       3       3       2       3       3       3       1       7       7       5      10       4      14       1       1       1       5       2
       3       3       3       2       3       3       3       1       2       3       1      14       2       2      12      15       8       6       9      11       2
       3       2       1       1       1       2       2       2       3       1       3      11       1      13      12      12      16      15       2       9       2
       3       1       1       3       1       3       2       2       1       1       5      13       3       7       0       6      10      14       1       5       1
       1       1       3       2       1       1       1       1       3       3      15       1       1       7       7       9      16      14      11      11       1
       1       2       1       2       1       1       3       1       2       2       7      12       5      13       5       5       6       1       0       5       1
       3       2       3       1       1       3       2       2       2       3       4       1       7       7       4      13      14       9      14      13       1
       2       2       1       2       1       3       1       2       3       3      14      13       6      15      10       4      12       1      10       3       1
       2       2       1       3       2       2       3       2       2       1      13       8      14       0       6      11      14      10      14       2       2
       1       3       1       3       2       2       2       3       2       3       6       8      14       5      14      14       1      14       9      12       2
       2       2       2       2       3       2       3       3       2       1       7       7      16      14       3       6       0      16       9       1       1
       3       1       2       1       2       3       3       3       1       1      16      16      10       1       3      14      12      16       2      14       1
       3       1       2       3       1       2       2       3       2       1       8       3       2      14      16      10      10      16       6      13       1
       2       2       1       3       2       3       2       3       3       3       7       5       6      10       1      11      11       6      13      10       1
       3       3       2       1       2       2       3       1       2       2      13       8      14       3       3      15       3       7      12      11       1
       2       2       1       3       3       1       2       2       1       1       8      12      14      15       1      15       8       0      11      10       1
       3       2       2       3       1       3       1       2       1       1      11      14      15       7      16      15      14       2       6      14       2
       2       2       3       1       3       1       3       3       2       3      16       7       2       1       8       5       8       0      10       3       2
       2       1       3       2       3       1       1       2       2       1      15       6       3      15       2       6       4       0      16      13       1
       1       2       2       1       1       1       2       3       1       1      10       4       4       3       7       5       7       5       4       1       1
       3       2       2       2       1       2       1       3       1       3       8       3       9      10       1       4       3      10      15       3       1
       2       2       1       1       3       2       1       1       2       3       5      16      13       6       6      16       4       5       9      16       1
       2       3       2       3       1       3       2       2       3       3       1      14       4       7       8       3      16       1       0      12       1
       2       1       1       3       1       1       3       1       1       2       3       7      13       5      11       6       4      14       9       5       1
       2       1       3       1       1       2       3       3       3       1       4      14      10      10      14       8      15       9       6      10       2
       1       2       3       2       1       2       3       3       1       3      11       6      14       9      14      13       2       1       6      11       1
       3       2       1       1       1       3       2       1       1       1       0       1       2       4       8      10       6      15       1       9       2
       1       2       2       3       1       3       1       2       2       3      14       3      14      12      14       6       2       7      12      12       1
       1       2       3       3       3       1       1       3       1       1       7       6      10      12      12       5       5       0      16      11       2
       2       3       1       1       2       2       1       3       2       3       3       0       8       4       8       5       1      12       4       0       1
       3       3       1       2       3       2       2       1       1       1      12       7      16       8      11      13       2       8       1       1       2
       2       2       2       2       1       3       1       3       3       2       2       4      10      15      11       9       4      10      12      14       1
       2       3       1       2       2       1       3       2       3       3      16      11       0      11      16      16      10      16       4      13       1
       3       1       2       1       1       2       2       3       1       3       8       4       5       8      11      14       8      16       9       8       2
       2       2       1       3       3       1       2       1       2       3       4      10       1      12      11       1       2       7       8      16       2
       3       1       1       2       1       3       1       1       1       3       6       1       1      16       6       7       7       0       7       9       2
       1       1       3       3       1       2       2       2       2       3       8       4       1      10       3      14       9      13       7       9       2
       3       3       3       2       2       2       1       2       3       3       0      10       1       5       6      14      12      15      14      15       2
       3       1       1       1       2       3       1       1       2       2       9      13      15       8       9       9       9       9       7       5       2
       1       3       2       3       2       1       2       3       1       2      14       2       9      12       0       9       7      12       3      15       2
       1       1       3       3       3       2       2       3       2       2      16       5      15      15       0       7      15       1      13      13       1
       1       2       3       2       2       1       1       3       3       3      12       9      15       0       9      13      11       3       7      14       1
       2       1       2       3       2       3       3       3       2       1       2       5      14       1      16      11      15       8      10       0       1
       1       1       1       1       3       3       2       2       3       1      13       7       8       1       6       5       1       6      15      13       2
       2       3       3       1       2       1       2       3       3       1       2      12       5       6      10      11       6      13      14       5       2
       3       2       2       1       1       2       3       3       1       3       1      16       1       3       7       7      15       5      14      11       1
       2       2       3       3       1       1       2       3       3       3      14       2       5      13      13       0      15       2      11       9       2
       1       3       2       1       2       3       3       3       2       1      12      13       9       4       3       6       8      12       7       8       2
       1       3       1       2       3       2       3       1       1       3      16      15       9       3       6      12       6       4       1      11       2
       3       2       3       2       3       2       2       2       2       3      10       1       7       0       3       0       7       0       4      14       1
       2       1       2       2       3       2       2       3       2       3      11      10      10      15      12      16      15       9       9       9       2
       1       3       1       3       3       1       2       1       1       1       6       4       9      14       0       6       8       6       8      12       1
       2       2       1       2       1       1       3       2       3       1       5       2       0       9       4       0       6      13       2       5       2
       2       2       1       1       1       1       3       2       3       2      13       1      16       5      16      12       9      14       7       6       1
       3       1       2       2       3       3       1       1       1       1       1       2       6       4       6       3      16       0      12      12       2
       1       1       2       3       2       2       3       2       3       1      12       9       8       3       8       3      14      14      11      10       2
       1       3       1       3       1       2       3       2       3       3      13      15      14      16      14       6       0       2      14      11       2
       1       2       1       1       1       2       1       2       3       3      11      10       9      10      13      10      16       2      11       8       1
       2       1       1       3       2       3       1       1       2       2      15       9       7       1      13      15      14      13       8       3       2
       3       1       1       2       2       1       3       3       1       1      12       2       9       4      10       8       7       3       3      10       1
       1       3       3       3       3       3       2       2       2       3       9       3      12       5       6       5       2      16       4       4       1
       1       3       2       3       1       3       1       3       3       1       4       7       4      16       1       5      15      15      10       5       1
       2       1       3       2       1       2       3       3       2       3       4      10       9      10       6       0      11       4       8      14       2
       3       2       3       3       1       2       3       1       3       3       0       8       1      15      10      14      12      14      16       3       2
       1       2       1       1       1       1       2       1       1       3      14       4       5       2      12      16       8      11      15      14       1
       2       3       2       3       1       1       2       1       2       1       8       6      13      13       6       2       2      10       2       0       1
       3       2       2       1       3       2       3       3       3       3       5      15       7       0      15      13       0       9      16      10       2
       2       3       2       1       2       3       2       3       1       1       9      14      14       9      10      13      14       7      12       1       1
       1       3       1       1       1       1       3       1       1       3       0       3       5       3       3       4       2       1       5       2       2
       3       2       1       3       2       1       2       1       2       3      12       9      10       9      10       2       8      10      13      13       1
       2       3       3       3       1       2       2       3       2       1      14       9       9       6       9       1      14       2      12       6       1
       2       2       2       2       3       1       2       2       3       3      10      10       2       8       7      11       1       3       5       0       1
       2       3       3       1       2       1       2       2       2       1      16       0       5      16      12       1      14      16       1       8       2
      18      26      26      24      21      15      27      16      25      25
      29      29      29      58      29      29      58      58      58      29
      92     129      94     135      96      70     162      52      78      80